
******************************************************************************
This program contains Ipopt, a library for large-scale nonlinear optimization.
 Ipopt is released as open source code under the Eclipse Public License (EPL).
         For more information visit http://projects.coin-or.org/Ipopt

This version of Ipopt was compiled from source code available at
    https://github.com/IDAES/Ipopt as part of the Institute for the Design of
    Advanced Energy Systems Process Systems Engineering Framework (IDAES PSE
    Framework) Copyright (c) 2018-2019. See https://github.com/IDAES/idaes-pse.

This version of Ipopt was compiled using HSL, a collection of Fortran codes
    for large-scale scientific computation.  All technical papers, sales and
    publicity material resulting from use of the HSL codes within IPOPT must
    contain the following acknowledgement:
        HSL, a collection of Fortran codes for large-scale scientific
        computation. See http://www.hsl.rl.ac.uk.
******************************************************************************

This is Ipopt version 3.13.2, running with linear solver ma27.

Number of nonzeros in equality constraint Jacobian...:      958
Number of nonzeros in inequality constraint Jacobian.:        0
Number of nonzeros in Lagrangian Hessian.............:      832

Total number of variables............................:      416
                     variables with only lower bounds:      128
                variables with lower and upper bounds:      224
                     variables with only upper bounds:        0
Total number of equality constraints.................:      415
Total number of inequality constraints...............:        0
        inequality constraints with only lower bounds:        0
   inequality constraints with lower and upper bounds:        0
        inequality constraints with only upper bounds:        0

iter    objective    inf_pr   inf_du lg(mu)  ||d||  lg(rg) alpha_du alpha_pr  ls
   0  0.0000000e+00 1.99e+00 1.17e-10  -1.0 0.00e+00    -  0.00e+00 0.00e+00   0
   1  2.5604443e+01 1.46e+00 1.15e+06  -1.0 9.17e+06    -  2.10e-02 3.91e-02h  2
   2  8.2108855e+01 1.29e+00 1.86e+06  -1.0 1.27e+07    -  2.16e-02 2.23e-02h  1
   3  8.2808056e+01 1.29e+00 1.86e+06  -1.0 2.14e+07    -  2.52e-02 1.61e-04h  1
   4  8.3024085e+01 1.29e+00 1.86e+06  -1.0 3.38e+07    -  1.20e-02 5.81e-05h  1
   5  8.9319121e+01 1.29e+00 2.24e+06  -1.0 3.46e+07    -  1.12e-02 1.50e-03h  3
   6  9.2003708e+01 1.29e+00 2.36e+06  -1.0 3.43e+07    -  1.31e-02 5.90e-04h  5
   7  9.3563446e+01 1.29e+00 2.44e+06  -1.0 3.46e+07    -  1.66e-02 3.31e-04h  6
   8  9.3951496e+01 1.29e+00 3.03e+06  -1.0 3.48e+07    -  1.79e-02 8.12e-05h  8
   9  9.4144942e+01 1.29e+00 8.73e+06  -1.0 3.48e+07    -  2.22e-02 4.03e-05h  9
iter    objective    inf_pr   inf_du lg(mu)  ||d||  lg(rg) alpha_du alpha_pr  ls
  10  9.4240231e+01 1.29e+00 2.78e+07  -1.0 3.48e+07    -  2.58e-02 1.97e-05h 10
  11r 9.4240231e+01 1.29e+00 1.00e+03   0.1 0.00e+00    -  0.00e+00 2.81e-07R 16
  12r 9.4240337e+01 1.27e+00 9.95e+02   0.1 5.15e+02    -  4.48e-03 7.26e-03f  1
  13r 9.4240395e+01 1.25e+00 9.82e+02   0.1 9.50e+01    -  5.64e-02 1.01e-02f  1
  14r 9.4240775e+01 1.15e+00 9.11e+02   0.1 9.77e+01    -  1.01e-01 7.24e-02f  1
  15r 9.4240775e+01 1.15e+00 9.99e+02   0.1 0.00e+00    -  0.00e+00 7.77e-08R  2
  16r 9.4240716e+01 1.11e+00 9.79e+02   0.1 1.16e+02    -  8.07e-02 2.04e-02f  1
  17r 9.4240703e+01 1.08e+00 9.67e+02   0.1 3.72e+02    -  3.02e-02 1.19e-02f  1
  18r 9.4240367e+01 1.04e+00 9.48e+02   0.1 3.06e+02    -  2.02e-02 1.96e-02f  1
  19r 9.4238258e+01 1.02e+00 1.02e+03   0.1 1.12e+03    -  6.82e-03 4.89e-02f  1
iter    objective    inf_pr   inf_du lg(mu)  ||d||  lg(rg) alpha_du alpha_pr  ls
  20  9.4387446e+01 1.02e+00 6.83e+00  -1.0 2.26e+07    -  2.58e-02 3.30e-05h  1
  21r 9.4387446e+01 1.02e+00 9.99e+02   0.0 0.00e+00    -  0.00e+00 4.66e-07R  2
  22r 9.4387106e+01 1.04e+00 9.97e+02   0.0 3.75e+03    -  1.41e-02 2.52e-03f  1
  23r 9.4386862e+01 1.01e+00 9.81e+02   0.0 3.57e+02    -  5.55e-03 1.60e-02f  1
  24r 9.4386682e+01 9.32e-01 9.51e+02   0.0 1.59e+02    -  7.96e-02 2.99e-02f  1
  25r 9.4386358e+01 2.99e+00 8.96e+02   0.0 1.52e+02    -  4.45e-02 5.83e-02f  1
  26r 9.4386417e+01 2.99e+00 9.05e+02   0.0 1.67e+04    -  2.98e-03 3.47e-04f  1
  27r 9.4386509e+01 2.95e+00 8.94e+02   0.0 1.67e+02    -  1.71e-02 1.16e-02f  1
  28r 9.4386409e+01 2.89e+00 8.66e+02   0.0 2.56e+02    -  2.06e-01 2.12e-02f  1
  29r 9.4382606e+01 2.37e+00 7.72e+02   0.0 6.75e+02    -  2.76e-02 1.82e-01f  1
iter    objective    inf_pr   inf_du lg(mu)  ||d||  lg(rg) alpha_du alpha_pr  ls
  30r 9.4383520e+01 4.61e+00 7.27e+02   0.0 1.22e+02    -  5.70e-02 1.00e-01f  1
  31r 9.4383520e+01 4.56e+00 7.17e+02   0.0 4.43e+00   4.0 1.16e-02 1.12e-02h  1
  32r 9.4383520e+01 4.36e+00 1.19e+03   0.0 2.59e+00   3.5 1.05e-03 7.53e-02h  1
  33r 9.4383520e+01 4.23e+00 1.31e+03   0.0 2.50e+00   3.0 1.31e-01 7.42e-02h  1
  34r 9.4383520e+01 3.42e+00 1.31e+03   0.0 2.23e+00   2.6 5.34e-02 3.68e-01h  1
  35r 9.4383520e+01 2.89e+00 1.16e+03   0.0 1.30e+00   3.0 1.28e-01 4.53e-01h  1
  36r 9.4383520e+01 2.58e+00 1.61e+03   0.0 7.65e-01   3.4 3.73e-01 5.31e-01h  1
  37r 9.4383520e+01 2.55e+00 1.53e+03   0.0 7.69e-01   2.9 8.27e-01 5.32e-02f  1
  38r 9.4383520e+01 2.30e+00 9.41e+02   0.0 3.48e-01   3.4 9.90e-01 7.30e-01h  1
  39r 9.4383520e+01 2.25e+00 8.90e+02   0.0 6.35e-01   2.9 4.31e-01 9.14e-02f  1
iter    objective    inf_pr   inf_du lg(mu)  ||d||  lg(rg) alpha_du alpha_pr  ls
  40r 9.4383520e+01 2.04e+00 4.51e+02   0.0 2.17e-01   3.3 9.90e-01 1.00e+00f  1
  41r 9.4383520e+01 2.00e+00 4.43e+02   0.0 4.93e-01   2.8 3.10e-01 7.30e-02f  1
  42r 9.4383520e+01 1.82e+00 3.42e+02   0.0 1.85e-01   3.3 9.91e-01 1.00e+00f  1
  43r 9.4383520e+01 1.66e+00 3.42e+02   0.0 5.55e-01   2.8 3.78e-01 2.90e-01f  1
  44r 9.4383520e+01 1.64e+00 5.28e+02   0.0 2.08e-01   3.2 1.00e+00 7.05e-02f  1
  45r 9.4383520e+01 1.19e+00 3.55e+02   0.0 7.21e-01   2.7 5.89e-01 7.33e-01f  1
  46r 9.4383520e+01 1.17e+00 8.35e+02   0.0 2.36e-01   3.2 7.94e-01 1.00e+00f  1
  47r 9.4383520e+01 1.17e+00 1.23e+03   0.0 8.81e-02   3.6 3.45e-01 3.76e-02f  1
  48r 9.4383520e+01 2.14e+00 1.35e+03   0.0 5.83e-02   4.0 4.66e-01 1.00e+00f  1
  49r 9.4383520e+01 1.17e+00 4.35e+03   0.0 2.91e+00   3.5 9.32e-03 3.61e-03f  1
iter    objective    inf_pr   inf_du lg(mu)  ||d||  lg(rg) alpha_du alpha_pr  ls
  50r 9.4383520e+01 1.17e+00 4.20e+03   0.0 2.98e-01   3.1 4.82e-01 3.41e-02f  1
  51r 9.4383520e+01 1.12e+00 2.51e+03   0.0 1.25e+00   2.6 1.28e-01 2.82e-01f  1
  52r 9.4383520e+01 2.14e+00 9.69e+02   0.0 3.35e-01   3.0 1.00e+00 6.07e-01f  1
  53r 9.4383520e+01 1.09e+00 1.12e+03   0.0 1.30e+01   2.5 1.84e-02 7.04e-03f  1
  54r 9.4383520e+01 2.13e+00 1.02e+03   0.0 3.76e-01   3.0 8.11e-01 3.99e-01f  1
  55r 9.4383520e+01 1.07e+00 2.39e+03   0.0 1.09e+01   2.5 1.13e-02 6.29e-03f  1
  56r 9.4383520e+01 1.07e+00 2.36e+03   0.0 4.20e-01   2.9 1.48e-01 1.26e-02f  1
  57r 9.4383520e+01 1.04e+00 2.28e+03   0.0 1.46e+00   2.4 1.30e-02 3.32e-02f  1
  58r 9.4383520e+01 1.03e+00 2.10e+03   0.0 4.71e-01   2.9 1.71e-01 8.11e-02f  1
  59r 9.4383520e+01 1.00e+00 2.00e+03   0.0 1.36e+00   2.4 2.67e-02 4.49e-02f  1
iter    objective    inf_pr   inf_du lg(mu)  ||d||  lg(rg) alpha_du alpha_pr  ls
  60r 9.4383520e+01 9.73e-01 1.93e+03   0.0 3.41e+00   1.9 4.80e-02 3.96e-02f  1
  61r 9.4383520e+01 9.69e-01 1.75e+03   0.0 9.04e-02   3.2 2.37e-01 8.86e-02f  1
  62r 9.4383520e+01 8.96e-01 1.35e+03   0.0 2.91e-01   2.8 8.68e-02 2.50e-01f  1
  63  9.4800449e+01 8.96e-01 1.90e+01  -1.0 1.71e+07    -  3.07e-02 1.20e-04h  1
  64r 9.4800449e+01 8.96e-01 9.99e+02  -0.0 0.00e+00    -  0.00e+00 3.21e-07R  3
  65r 9.4800690e+01 2.14e+00 9.96e+02  -0.0 4.70e+02    -  3.43e-02 3.37e-03f  1
  66r 9.4802145e+01 8.72e-01 9.71e+02  -0.0 4.60e+02    -  1.21e-02 2.48e-02f  1
  67r 9.4802145e+01 8.15e-01 9.23e+02  -0.0 2.30e+00   2.0 9.27e-02 6.51e-02f  1
  68r 9.4802145e+01 8.08e-01 9.09e+02  -0.0 1.35e+01   1.5 9.57e-03 3.06e-02f  1
  69r 9.4802145e+01 8.09e-01 8.92e+02  -0.0 2.73e+01   1.0 3.02e-02 3.35e-03f  1
iter    objective    inf_pr   inf_du lg(mu)  ||d||  lg(rg) alpha_du alpha_pr  ls
  70r 9.4802145e+01 8.07e-01 8.65e+02  -0.0 6.07e+00   0.6 2.37e-02 4.09e-02f  1
  71r 9.4802145e+01 8.04e-01 8.00e+02  -0.0 1.27e+01   0.1 6.34e-02 9.22e-02f  1
  72  9.4844922e+01 8.04e-01 4.30e+02  -1.0 1.71e+07    -  2.59e-02 1.18e-05h  1
  73  9.4900210e+01 8.04e-01 6.27e+05  -1.0 3.89e+07    -  3.02e-02 2.05e-05h  1
  74  9.5719980e+01 8.04e-01 2.57e+06  -1.0 3.91e+07    -  3.01e-02 2.96e-04h  6
  75  9.6157053e+01 8.04e-01 9.07e+06  -1.0 3.93e+07    -  3.00e-02 1.53e-04h  7
  76r 9.6157053e+01 8.04e-01 9.99e+02  -0.1 0.00e+00    -  0.00e+00 2.82e-07R 16
  77r 9.6157497e+01 2.14e+00 9.95e+02  -0.1 1.03e+03    -  6.54e-03 4.26e-03f  1
  78r 9.6158531e+01 7.69e-01 9.79e+02  -0.1 4.63e+02    -  2.90e-02 1.60e-02f  1
  79r 9.6158531e+01 7.69e-01 9.35e+02  -0.1 1.46e+00   2.0 7.83e-02 5.17e-02f  1
iter    objective    inf_pr   inf_du lg(mu)  ||d||  lg(rg) alpha_du alpha_pr  ls
  80r 9.6158531e+01 2.14e+00 8.46e+02  -0.1 1.46e+00   2.4 1.49e-01 1.63e-01f  1
  81r 9.6158531e+01 2.14e+00 8.16e+02  -0.1 3.98e+00   1.9 4.81e-02 4.59e-02f  1
  82r 9.6158531e+01 2.14e+00 1.15e+03  -0.1 1.97e+00   2.4 1.43e-01 9.96e-04h  1
  83r 9.6158531e+01 7.68e-01 9.39e+02  -0.1 5.86e+01   1.9 6.36e-04 7.55e-03f  1
  84r 9.6158531e+01 7.68e-01 8.81e+02  -0.1 1.56e+00   2.3 4.49e-01 5.58e-03f  1
  85r 9.6158531e+01 7.68e-01 8.56e+02  -0.1 5.31e+00   1.8 3.01e-02 3.57e-02f  1
  86r 9.6158531e+01 2.13e+00 4.26e+02  -0.1 8.32e-01   1.4 7.14e-01 4.04e-01f  1
  87r 9.6158531e+01 7.67e-01 3.09e+03  -0.1 1.01e+01   2.7 5.27e-03 5.67e-03f  1
  88r 9.6158531e+01 7.67e-01 3.07e+03  -0.1 3.89e-01   2.2 9.90e-01 6.67e-03f  1
  89r 9.6158531e+01 7.66e-01 1.92e+03  -0.1 2.89e-01   1.7 1.25e-01 3.16e-01f  1
iter    objective    inf_pr   inf_du lg(mu)  ||d||  lg(rg) alpha_du alpha_pr  ls
  90r 9.6158531e+01 7.66e-01 1.83e+03  -0.1 1.08e-01   3.1 9.90e-01 5.08e-02f  1
  91r 9.6158531e+01 2.13e+00 4.54e+02  -0.1 6.78e-02   2.6 5.09e-01 1.00e+00f  1
  92r 9.6158531e+01 7.65e-01 4.78e+03  -0.1 7.30e+00   3.0 4.76e-03 2.87e-03f  1
  93r 9.6158531e+01 7.65e-01 4.71e+03  -0.1 7.49e-02   3.4 7.47e-01 1.45e-02h  1
  94r 9.6158531e+01 7.65e-01 4.69e+03  -0.1 1.60e-01   3.0 8.32e-02 3.65e-03F  1
  95r 9.6158531e+01 7.65e-01 5.28e+03  -0.1 3.82e-02   3.4 8.39e-02 1.60e-01F  1
  96r 9.6158531e+01 7.65e-01 5.21e+03  -0.1 3.64e-01   2.9 3.79e-01 1.16e-02h  1
  97r 9.6158531e+01 7.65e-01 3.09e+03  -0.1 1.48e-01   3.3 1.08e-01 2.23e-01h  1
  98r 9.6158531e+01 7.65e-01 1.52e+03  -0.1 4.73e-02   3.8 5.90e-01 2.76e-01h  2
  99r 9.6158531e+01 7.65e-01 1.54e+03  -0.1 6.57e-02   3.3 4.98e-01 2.29e-02F  1
iter    objective    inf_pr   inf_du lg(mu)  ||d||  lg(rg) alpha_du alpha_pr  ls
 100r 9.6158531e+01 7.65e-01 1.12e+03  -0.1 2.99e-02   3.7 1.17e-02 3.20e-01F  1
 101r 9.6158531e+01 7.65e-01 1.01e+03  -0.1 2.45e-01   3.2 5.27e-01 1.45e-01f  1
 102r 9.6158531e+01 7.65e-01 1.47e+03  -0.1 1.46e-01   3.7 1.95e-01 9.83e-03h  1
 103r 9.6158531e+01 7.65e-01 1.19e+03  -0.1 1.55e-01   4.1 1.72e-01 1.80e-01h  3
 104r 9.6158531e+01 7.65e-01 1.21e+03  -0.1 9.48e-02   3.6 3.96e-01 2.51e-01h  1
 105r 9.6158531e+01 7.65e-01 2.49e+03  -0.1 1.42e-02   4.0 3.32e-02 2.94e-01F  1
 106r 9.6158531e+01 7.65e-01 2.50e+03  -0.1 3.58e+00   3.6 3.40e-04 1.38e-03f  1
 107r 9.6158531e+01 7.65e-01 2.37e+03  -0.1 3.58e-01   4.0 1.36e-01 4.63e-02h  1
 108r 9.6158531e+01 7.65e-01 3.15e+03  -0.1 1.81e-01   3.5 1.11e-02 1.77e-01h  1
 109r 9.6158531e+01 7.65e-01 3.19e+03  -0.1 4.57e-02   3.9 5.13e-02 1.72e-02F  1
iter    objective    inf_pr   inf_du lg(mu)  ||d||  lg(rg) alpha_du alpha_pr  ls
 110r 9.6158531e+01 7.65e-01 4.48e+03  -0.1 1.36e-01   4.4 2.08e-01 5.00e-01h  2
 111r 9.6158531e+01 7.65e-01 5.06e+03  -0.1 9.95e-02   3.9 9.21e-01 3.64e-02f  4
 112r 9.6158531e+01 7.65e-01 5.48e+03  -0.1 4.18e-02   4.3 1.00e+00 3.12e-02f  6
 113r 9.6158531e+01 2.13e+00 1.10e+03  -0.1 1.02e-01   3.8 2.88e-01 6.10e-01f  1
 114r 9.6158531e+01 7.65e-01 1.07e+04  -0.1 2.78e+00   3.4 2.36e-03 6.97e-03h  1
 115r 9.6158531e+01 7.65e-01 1.02e+04  -0.1 1.54e-01   3.8 1.00e+00 4.25e-02f  1
 116r 9.6158531e+01 2.02e+00 8.14e+03  -0.1 3.80e-01   3.3 6.84e-02 1.92e-01f  1
 117r 9.6158531e+01 7.65e-01 8.12e+03  -0.1 9.30e+00   2.8 1.48e-02 3.14e-03f  1
 118r 9.6158531e+01 7.65e-01 7.88e+03  -0.1 3.27e-01   2.4 1.29e-01 2.87e-02f  1
 119r 9.6158531e+01 2.01e+00 5.82e+03  -0.1 4.19e-01   1.9 7.49e-01 2.32e-01f  1
iter    objective    inf_pr   inf_du lg(mu)  ||d||  lg(rg) alpha_du alpha_pr  ls
 120r 9.6158309e+01 2.01e+00 5.81e+03  -0.1 1.11e+04    -  1.23e-03 1.37e-03f  1
 121r 9.6158309e+01 7.65e-01 5.80e+03  -0.1 8.57e+00   1.4 3.99e-02 2.20e-03f  1
 122r 9.6158309e+01 7.65e-01 4.69e+03  -0.1 3.50e+00   0.9 1.56e-01 1.69e-01f  2
 123r 9.6158309e+01 7.65e-01 4.58e+03  -0.1 9.28e+00   0.4 8.50e-01 2.33e-02f  1
 124r 9.6158217e+01 7.65e-01 4.58e+03  -0.1 3.89e+04    -  1.20e-03 1.32e-04f  1
 125r 9.6158217e+01 2.13e+00 3.41e+03  -0.1 2.03e+01  -0.0 3.08e-01 3.22e-01f  1
 126r 9.6158217e+01 7.64e-01 3.41e+03  -0.1 1.51e+02  -0.5 2.25e-03 4.13e-04f  1
 127r 9.6158217e+01 7.64e-01 3.36e+03  -0.1 1.93e+00   2.6 3.84e-01 2.33e-02f  1
 128r 9.6158217e+01 7.64e-01 7.95e+03  -0.1 1.35e-01   2.2 1.36e-01 5.62e-02F  1
 129r 9.6158217e+01 7.64e-01 7.91e+03  -0.1 3.97e-01   3.5 1.41e-01 1.87e-02f  1
iter    objective    inf_pr   inf_du lg(mu)  ||d||  lg(rg) alpha_du alpha_pr  ls
 130r 9.6158217e+01 7.64e-01 1.07e+04  -0.1 1.49e-01   3.0 5.95e-01 2.17e-01h  3
 131r 9.6158217e+01 7.64e-01 1.12e+04  -0.1 1.57e-01   2.5 7.10e-03 1.64e-02f  6
 132r 9.6158217e+01 7.64e-01 1.20e+04  -0.1 5.25e-02   3.9 4.19e-01 2.42e-02h  6
 133r 9.6158217e+01 7.64e-01 1.62e+04  -0.1 5.41e-02   3.4 2.49e-01 2.59e-02h  6
 134r 9.6158217e+01 7.64e-01 2.12e+04  -0.1 6.98e-02   3.8 3.41e-01 7.81e-03h  8
 135r 9.6158217e+01 7.64e-01 2.30e+04  -0.1 1.24e-01   3.3 4.45e-02 1.74e-03f  9
 136r 9.6158217e+01 7.64e-01 4.39e+04  -0.1 5.33e-01   3.8 6.59e-03 2.25e-04H  1
 137r 9.6158217e+01 7.64e-01 5.13e+04  -0.1 3.24e-01   4.2 5.95e-03 1.29e-03h  1
 138r 9.6158217e+01 7.64e-01 5.89e+04  -0.1 4.31e-02   4.6 5.18e-01 6.53e-03f  6
 139r 9.6158217e+01 7.64e-01 6.46e+04  -0.1 1.53e-01   4.1 2.20e-03 7.90e-04f  8
iter    objective    inf_pr   inf_du lg(mu)  ||d||  lg(rg) alpha_du alpha_pr  ls
 140r 9.6158217e+01 7.64e-01 6.96e+04  -0.1 6.45e-01   4.6 3.27e-03 2.26e-05H  1
 141r 9.6158217e+01 7.64e-01 9.07e+04  -0.1 4.18e-02   5.0 1.56e-01 3.32e-03f  7
 142r 9.6158217e+01 7.64e-01 2.44e+05  -0.1 4.86e-02   4.5 1.74e-03 1.45e-03H  1
 143r 9.6158217e+01 7.64e-01 3.92e+05  -0.1 7.89e-02   4.9 8.76e-04 1.52e-03H  1
 144r 9.6158217e+01 7.64e-01 4.39e+05  -0.1 3.87e-02   6.3 9.12e-02 2.22e-02f  1
 145r 9.6158217e+01 7.64e-01 5.93e+05  -0.1 4.80e-02   5.8 1.11e-03 7.87e-03f  3
 146r 9.6158217e+01 7.64e-01 6.91e+05  -0.1 3.57e-02   6.2 2.02e-02 4.16e-03f  5
 147r 9.6158217e+01 7.64e-01 7.44e+05  -0.1 3.49e-02   6.6 2.41e-01 2.81e-03f  6
 148r 9.6158217e+01 7.64e-01 1.23e+06  -0.1 3.51e-02   6.2 1.34e-03 4.54e-04H  1
 149r 9.6158217e+01 7.64e-01 1.34e+06  -0.1 3.47e-02   6.6 1.68e-02 5.98e-03f  5
iter    objective    inf_pr   inf_du lg(mu)  ||d||  lg(rg) alpha_du alpha_pr  ls
 150r 9.6158217e+01 7.64e-01 1.50e+06  -0.1 3.39e-02   7.0 1.45e-01 3.96e-03f  6
 151r 9.6158217e+01 7.64e-01 2.10e+06  -0.1 3.40e-02   6.5 5.49e-02 2.83e-03f  6
 152r 9.6158217e+01 7.64e-01 2.87e+06  -0.1 3.34e-02   7.0 3.63e-02 1.41e-03f  8
 153r 9.6158217e+01 7.64e-01 3.23e+06  -0.1 3.30e-02   7.4 1.00e+00 4.91e-04f  9
 154r 9.6158217e+01 7.64e-01 1.90e+07  -0.1 3.36e-02   6.9 2.39e-03 1.61e-03H  1
 155r 9.6158217e+01 7.64e-01 2.11e+07  -0.1 3.96e-02   7.3 7.99e-03 1.76e-03f  5
 156r 9.6158217e+01 7.64e-01 2.28e+07  -0.1 3.28e-02   7.8 8.25e-03 1.76e-03f  7
 157r 9.6158217e+01 7.64e-01 4.50e+07  -0.1 3.25e-02   8.2 1.34e-03 2.13e-03f  7
 158r 9.6158217e+01 7.64e-01 7.45e+07  -0.1 3.23e-02   8.6 1.49e-01 5.76e-04f  8
 159r 9.6158217e+01 7.64e-01 1.13e+08  -0.1 3.23e-02   8.1 1.83e-03 2.02e-05H  1
iter    objective    inf_pr   inf_du lg(mu)  ||d||  lg(rg) alpha_du alpha_pr  ls
 160r 9.6158217e+01 7.64e-01 2.44e+08  -0.1 3.22e-02   8.6 2.50e-04 4.15e-04f  3
 161r 9.6158217e+01 7.64e-01 3.05e+08  -0.1 3.21e-02   9.0 2.07e-02 8.45e-05f  5
 162r 9.6158217e+01 7.64e-01 9.95e+08  -0.1 7.73e-02   8.5 4.34e-05 2.10e-05H  1
 163r 9.6158217e+01 7.64e-01 1.51e+09  -0.1 3.22e-02   9.8 2.45e-03 3.73e-04f  4
 164r 9.6158217e+01 7.64e-01 2.45e+09  -0.1 3.23e-02  10.3 8.97e-04 1.52e-04f  6
 165r 9.6158217e+01 7.64e-01 2.61e+09  -0.1 9.83e-02   9.8 1.64e-05 5.47e-06f  6
 166r 9.6158217e+01 7.64e-01 4.29e+09  -0.1 3.22e-02  10.2 1.28e-01 2.86e-05f  7
 167r 9.6158217e+01 7.64e-01 1.67e+10  -0.1 3.22e-02  10.6 1.16e-04 2.11e-05H  1
 168r 9.6158217e+01 7.64e-01 2.64e+10  -0.1 3.22e-02  11.1 4.20e-05 8.87e-05f  6
 169r 9.6158217e+01 7.64e-01 3.18e+11  -0.1 3.23e-02  11.5 1.03e-04 3.80e-05f  8
iter    objective    inf_pr   inf_du lg(mu)  ||d||  lg(rg) alpha_du alpha_pr  ls
 170r 9.6158217e+01 7.64e-01 2.72e+20  -0.1 8.23e-02  11.9 3.01e-05 2.20e-07f 11
Scaling factors are invalid - setting them all to 1.
Scaling factors are invalid - setting them all to 1.
Scaling factors are invalid - setting them all to 1.
Scaling factors are invalid - setting them all to 1.
Scaling factors are invalid - setting them all to 1.
Scaling factors are invalid - setting them all to 1.
Scaling factors are invalid - setting them all to 1.
Scaling factors are invalid - setting them all to 1.
Scaling factors are invalid - setting them all to 1.
Scaling factors are invalid - setting them all to 1.
Scaling factors are invalid - setting them all to 1.
Scaling factors are invalid - setting them all to 1.
Scaling factors are invalid - setting them all to 1.
Scaling factors are invalid - setting them all to 1.
Scaling factors are invalid - setting them all to 1.
Scaling factors are invalid - setting them all to 1.
Scaling factors are invalid - setting them all to 1.
Scaling factors are invalid - setting them all to 1.
Scaling factors are invalid - setting them all to 1.
Scaling factors are invalid - setting them all to 1.
Scaling factors are invalid - setting them all to 1.
Scaling factors are invalid - setting them all to 1.
Scaling factors are invalid - setting them all to 1.
WARNING: Problem in step computation; switching to emergency mode.
 171r 9.6158217e+01 7.64e-01 2.72e+20  -0.1 8.23e-02  20.0 0.00e+00 0.00e+00R  1
Scaling factors are invalid - setting them all to 1.
Scaling factors are invalid - setting them all to 1.
Scaling factors are invalid - setting them all to 1.
Scaling factors are invalid - setting them all to 1.
Scaling factors are invalid - setting them all to 1.
Scaling factors are invalid - setting them all to 1.
Scaling factors are invalid - setting them all to 1.
Scaling factors are invalid - setting them all to 1.
Scaling factors are invalid - setting them all to 1.
Scaling factors are invalid - setting them all to 1.
Scaling factors are invalid - setting them all to 1.
Scaling factors are invalid - setting them all to 1.
Scaling factors are invalid - setting them all to 1.
Scaling factors are invalid - setting them all to 1.
WARNING: Problem in step computation; switching to emergency mode.
Restoration phase is called at point that is almost feasible,
  with constraint violation 0.000000e+00. Abort.
Restoration phase in the restoration phase failed.

Number of Iterations....: 171

                                   (scaled)                 (unscaled)
Objective...............:   9.6158217176831954e+01    9.6158217176831954e+01
Dual infeasibility......:   2.7159975546613976e+20    2.7159975546613976e+20
Constraint violation....:   7.6429523639784924e-01    7.6429523639784924e-01
Complementarity.........:   1.2353428674733578e+00    1.2353428674733578e+00
Overall NLP error.......:   1.5044539674065074e+19    2.7159975546613976e+20


Number of objective function evaluations             = 545
Number of objective gradient evaluations             = 27
Number of equality constraint evaluations            = 545
Number of inequality constraint evaluations          = 0
Number of equality constraint Jacobian evaluations   = 177
Number of inequality constraint Jacobian evaluations = 0
Number of Lagrangian Hessian evaluations             = 172
Total CPU secs in IPOPT (w/o function evaluations)   =      0.478
Total CPU secs in NLP function evaluations           =      5.455

EXIT: Restoration Failed!
